[VALIDATOR STDOUT]
Checking plan: /home/jfan5/Safety-gen/runs/benchmark/optic/blocksworld_20260205_112402/blocksworld/optic_results/bw_ops3_n42_seed42001.plan
Plan executed successfully - checking goal
Plan valid
Final value: 254 

Successful plans:
Value: 254
 /home/jfan5/Safety-gen/runs/benchmark/optic/blocksworld_20260205_112402/blocksworld/optic_results/bw_ops3_n42_seed42001.plan 254
